
Gurobi 11.0.3 (linux64) logging started Sun Nov 24 02:02:47 2024

Set parameter LogFile to value "/home/yihong/Coding/OR_SUC/SUC_results_bigM100000_thread4/case24_ieee_rts_theta0.5_epsilon0.05_gurobi_seed1490000_num_gen100_N_WDR100_load_scaling_factor1_exact_T24quadra_cost.txt"
Set parameter TimeLimit to value 3600
Gurobi Optimizer version 11.0.3 build v11.0.3rc0 (linux64 - "Ubuntu 20.04.6 LTS")

CPU model: AMD EPYC 7532 32-Core Processor, instruction set [SSE2|AVX|AVX2]
Thread count: 64 physical cores, 128 logical processors, using up to 4 threads

Optimize a model with 57659 rows, 29961 columns and 1325658 nonzeros
Model fingerprint: 0x121edb52
Model has 2400 quadratic constraints
Variable types: 27461 continuous, 2500 integer (2500 binary)
Coefficient statistics:
  Matrix range     [2e-04, 1e+05]
  QMatrix range    [2e-03, 8e-03]
  QLMatrix range   [8e-02, 6e+01]
  Objective range  [1e+00, 1e+00]
  Bounds range     [1e+00, 1e+00]
  RHS range        [1e+00, 1e+05]
Presolve removed 47116 rows and 12703 columns
Presolve time: 0.40s
Presolved: 10543 rows, 17258 columns, 59644 nonzeros
Presolved model has 2400 quadratic constraint(s)
Variable types: 14768 continuous, 2490 integer (2490 binary)

Root relaxation: objective 4.758992e+04, 8432 iterations, 0.26 seconds (0.38 work units)

    Nodes    |    Current Node    |     Objective Bounds      |     Work
 Expl Unexpl |  Obj  Depth IntInf | Incumbent    BestBd   Gap | It/Node Time

     0     0 47589.9201    0   35          - 47589.9201      -     -    0s
     0     0 377986.712    0  703          - 377986.712      -     -    1s
     0     0 432074.338    0  665          - 432074.338      -     -    1s
     0     0 669714.108    0  587          - 669714.108      -     -    1s
     0     0 669966.292    0  360          - 669966.292      -     -    1s
     0     0 670828.750    0  325          - 670828.750      -     -    2s
     0     0 670886.848    0  312          - 670886.848      -     -    2s
     0     0 670889.911    0  306          - 670889.911      -     -    2s
     0     0 670890.879    0  306          - 670890.879      -     -    2s
     0     2 670890.879    0  306          - 670890.879      -     -    3s
   158   267 671214.235   32  226          - 670915.216      -  43.4    5s
H  446   277                    671007.00935 670915.216  0.01%  19.7    5s
*  446   277             120    671007.00935 670915.216  0.01%  19.7    5s

Cutting planes:
  Gomory: 9
  Implied bound: 260
  MIR: 153
  Flow cover: 80
  RLT: 3
  Relax-and-lift: 2

Explored 471 nodes (32857 simplex iterations) in 6.28 seconds (7.17 work units)
Thread count was 4 (of 128 available processors)

Solution count 2: 671007 671007 

Optimal solution found (tolerance 1.00e-03)
Warning: max constraint violation (7.5747e-07) exceeds tolerance
Best objective 6.710070093531e+05, best bound 6.709152157913e+05, gap 0.0137%
